(set-logic QF_NRA)
(set-info :smt-lib-version 2.6)
(set-info :source |axeyum synthetic graduated corpus (scripts/gen-graduated-nra-nia.py)|)
(set-info :status sat)
; STATUS-PROOF: explicit rational witness ['1/2', '2/3', '3/4', '4/5', '5/6', '6/7', '7/8', '8/9'] substituted; sum(xi^2)=31001581/6350400 holds exactly (checked by generator).
(declare-fun x1 () Real)
(declare-fun x2 () Real)
(declare-fun x3 () Real)
(declare-fun x4 () Real)
(declare-fun x5 () Real)
(declare-fun x6 () Real)
(declare-fun x7 () Real)
(declare-fun x8 () Real)

(assert (= x1 (/ 1.0 2.0)))
(assert (= x2 (/ 2.0 3.0)))
(assert (= x3 (/ 3.0 4.0)))
(assert (= x4 (/ 4.0 5.0)))
(assert (= x5 (/ 5.0 6.0)))
(assert (= x6 (/ 6.0 7.0)))
(assert (= x7 (/ 7.0 8.0)))
(assert (= x8 (/ 8.0 9.0)))
(assert (= (+ (* x1 x1) (* x2 x2) (* x3 x3) (* x4 x4) (* x5 x5) (* x6 x6) (* x7 x7) (* x8 x8)) (/ 31001581.0 6350400.0)))
(check-sat)
